p tw 37 65
24 26
12 6
12 7
16 13
15 16
15 12
16 12
9 11
15 11
16 11
14 2
9 2
9 8
9 3
8 3
9 10
9 4
10 4
14 9
20 5
9 5
11 5
5 1
20 1
19 20
18 20
21 20
23 20
21 18
21 14
18 14
19 14
20 14
27 17
21 17
27 21
24 21
27 24
33 24
24 22
26 22
18 19
21 19
22 19
29 19
34 30
33 34
22 29
33 29
34 29
32 33
31 33
35 36
37 36
31 32
35 32
36 32
31 28
32 28
33 28
31 27
32 27
33 27
27 25
33 25